1x4x2_1_1_1                             
   1.00000000000000
    15.5717000000000000    0.0000000000000000    0.0000000000000000
    -3.8134441900000000   20.3927060000000000    0.0000000000000000
     0.0000000000000000    0.0000000000000000   22.5174000000000000
    Ru    Mo     P    C    O
   60   60    60      1     2
Selective dynamics
cart
   -0.36261      6.25587      0.32340   F  F  F
    4.30320      5.03394      0.46747   F  F  F
    1.37951      2.76117      1.81472   F  F  F
    3.51452      1.06593      1.51833   F  F  F
    5.48485      7.34933      1.34050   F  F  F
   10.15051      6.12740      1.48419   F  F  F
    8.18025      1.12099      0.28926   F  F  F
    8.40854      9.62209     22.51027   F  F  F
   11.33216      8.44278      2.35759   F  F  F
   14.02756      2.21444      1.30636   F  F  F
   -2.26934     16.45222      0.32340   F  F  F
    2.39648     15.23029      0.46747   F  F  F
   -0.52721     12.95753      1.81472   F  F  F
    1.60780     11.26228      1.51833   F  F  F
    3.57813     17.54568      1.34050   F  F  F
    8.24379     16.32375      1.48419   F  F  F
    6.27353     11.31734      0.28926   F  F  F
    6.50181     19.81845     22.51027   F  F  F
    9.42544     18.63914      2.35759   F  F  F
   12.12084     12.41080      1.30636   F  F  F
   -1.32368      8.82503      3.14544   T  T  T
    3.34069      7.79876      3.07358   T  T  T
    0.20116      5.43700      4.57045   T  T  T
    2.53957      3.80780      4.07593   T  T  T
    4.48213     10.12376      3.87037   T  T  T
    9.18144      8.95119      4.06643   T  T  T
    7.22236      3.83423      2.82477   T  T  T
    9.36827      2.20552      2.54692   T  T  T
   12.46659      1.06176      5.08822   T  T  T
   12.95342      4.97696      4.12365   T  T  T
   -0.40187      1.65774      5.59709   T  T  T
    4.21905      0.39414      5.62990   T  T  T
   -0.63390      8.11576      7.08519   T  T  T
    1.70325      6.47564      6.66168   T  T  T
    5.61858      2.74978      6.53311   T  T  T
   10.16951      1.38508      6.51344   T  T  T
    6.18385      6.66483      5.40463   T  T  T
    8.33438      5.00718      5.12080   T  T  T
   11.39771      3.71322      7.42633   T  T  T
   12.06780      8.00031      6.57078   T  T  T
   -3.23040     19.02139      3.14544   T  T  T
    1.43397     17.99511      3.07358   T  T  T
   -1.70556     15.63335      4.57045   T  T  T
    0.63284     14.00416      4.07593   T  T  T
    2.57540     20.32012      3.87037   T  T  T
    7.27471     19.14755      4.06643   T  T  T
    5.31564     14.03058      2.82477   T  T  T
    7.46155     12.40188      2.54692   T  T  T
   10.55986     11.25811      5.08822   T  T  T
   11.04670     15.17331      4.12365   T  T  T
   -2.30860     11.85410      5.59709   T  T  T
    2.31233     10.59050      5.62990   T  T  T
   -2.54062     18.31212      7.08519   T  T  T
   -0.20347     16.67199      6.66168   T  T  T
    3.71186     12.94613      6.53311   T  T  T
    8.26279     11.58143      6.51344   T  T  T
    4.27713     16.86119      5.40463   T  T  T
    6.42766     15.20353      5.12080   T  T  T
    9.49098     13.90958      7.42633   T  T  T
   10.16108     18.19666      6.57078   T  T  T
   13.84277      7.21940      4.89650   T  T  T
    4.95963      2.35267      3.61416   T  T  T
    1.90473      0.93777      3.99919   T  T  T
    0.99120      8.26435      4.62965   T  T  T
    4.77300      5.38970      3.22171   T  T  T
   10.72657      3.53918      4.71001   T  T  T
    7.92286      2.21141      5.08324   T  T  T
    7.74773      6.68443      2.95643   T  T  T
   10.69320      6.44810      4.45600   T  T  T
   14.59121      0.68703      3.21939   T  T  T
   12.40909     10.32244      7.34621   T  T  T
    4.00484      5.10966      6.20092   T  T  T
    1.21537      3.59839      6.44787   T  T  T
    1.78035      1.03062      6.93809   T  T  T
    3.90209      8.22604      5.95047   T  T  T
   10.03216      6.18234      6.80180   T  T  T
    6.76624      4.84358      7.27931   T  T  T
    6.73998      9.50434      5.49084   T  T  T
    9.68769      9.25429      6.70474   T  T  T
   13.84107      3.69585      6.24611   T  T  T
   11.93605     17.41576      4.89650   T  T  T
    3.05291     12.54903      3.61416   T  T  T
   -0.00200     11.13412      3.99919   T  T  T
   -0.91552     18.46070      4.62965   T  T  T
    2.86628     15.58605      3.22171   T  T  T
    8.81985     13.73553      4.71001   T  T  T
    6.01613     12.40776      5.08324   T  T  T
    5.84100     16.88079      2.95643   T  T  T
    8.78648     16.64445      4.45600   T  T  T
   12.68449     10.88339      3.21939   T  T  T
   14.31581      0.12609      7.34621   T  T  T
    2.09812     15.30601      6.20092   T  T  T
   -0.69136     13.79475      6.44787   T  T  T
   -0.12638     11.22697      6.93809   T  T  T
    1.99537     18.42240      5.95047   T  T  T
    8.12544     16.37869      6.80180   T  T  T
    4.85952     15.03994      7.27931   T  T  T
    4.83325     19.70069      5.49084   T  T  T
    7.78097     19.45065      6.70474   T  T  T
   11.93435     13.89221      6.24611   T  T  T
   14.53317      4.25208      2.22478   F  F  F
    4.05833      9.77749      1.11427   F  F  F
    1.10202      8.47276      1.40878   F  F  F
    1.88514      5.55069      1.92464   F  F  F
    5.76221      2.61190      0.69932   F  F  F
   11.81252      0.67459      2.13136   F  F  F
    6.94948      9.56622      2.42550   F  F  F
    8.68588      3.91051      0.39919   F  F  F
   11.60952      3.70535      1.71605   F  F  F
   13.75007      7.92603      0.90004   F  F  F
   12.62645     14.44844      2.22478   F  F  F
    2.15161     19.97384      1.11427   F  F  F
   -0.80470     18.66911      1.40878   F  F  F
   -0.02158     15.74704      1.92464   F  F  F
    3.85549     12.80825      0.69932   F  F  F
    9.90580     10.87094      2.13136   F  F  F
    5.04276     19.76257      2.42550   F  F  F
    6.77915     14.10686      0.39919   F  F  F
    9.70280     13.90171      1.71605   F  F  F
   11.84334     18.12239      0.90004   F  F  F
    3.23297      7.16559      0.69370   F  F  F
    0.74283      4.13075      0.10355   F  F  F
    3.63122      3.41965      1.95128   F  F  F
    1.26266      0.40745      1.38214   F  F  F
    9.08028      8.25905      1.71042   F  F  F
    6.59030      5.22420      1.12027   F  F  F
   10.43196      1.77947      0.42582   F  F  F
    7.10997      1.50090      2.39924   F  F  F
   12.43760      6.31766      2.13737   F  F  F
   12.00399     10.05707      0.87378   F  F  F
    1.32625     17.36194      0.69370   F  F  F
   -1.16389     14.32710      0.10355   F  F  F
    1.72450     13.61601      1.95128   F  F  F
   -0.64406     10.60380      1.38214   F  F  F
    7.17356     18.45540      1.71042   F  F  F
    4.68357     15.42056      1.12027   F  F  F
    8.52523     11.97582      0.42582   F  F  F
    5.20325     11.69726      2.39924   F  F  F
   10.53088     16.51401      2.13737   F  F  F
   10.09726     20.25342      0.87378   F  F  F
    2.19968      9.94075      3.30260   T  T  T
   -0.06112      6.80903      2.63651   T  T  T
    2.60750      6.16881      4.53735   T  T  T
    0.33176      3.12921      3.91214   T  T  T
   10.04347      0.86107      4.28025   T  T  T
    5.60278      7.99665      3.61838   T  T  T
    9.45362      4.59205      2.94512   T  T  T
    6.08175      4.27264      4.86556   T  T  T
   11.42803      9.09017      4.61311   T  T  T
   12.79121      2.67855      3.47577   T  T  T
    3.40403      2.58596      5.93675   T  T  T
   -1.26262      9.67682      5.52359   T  T  T
    1.59501      8.87126      7.06259   T  T  T
   -0.41087      5.65435      6.96920   T  T  T
    9.02288      3.56977      6.98186   T  T  T
    6.55138      0.50364      6.24607   T  T  T
    8.27173      7.52235      5.74248   T  T  T
    5.12394      6.75275      7.57108   T  T  T
   12.32935      1.52711      7.48851   T  T  T
   12.32957      5.62893      6.52638   T  T  T
    0.29296     20.13711      3.30260   T  T  T
   -1.96784     17.00538      2.63651   T  T  T
    0.70078     16.36517      4.53735   T  T  T
   -1.57496     13.32556      3.91214   T  T  T
    8.13675     11.05742      4.28025   T  T  T
    3.69606     18.19301      3.61838   T  T  T
    7.54690     14.78841      2.94512   T  T  T
    4.17502     14.46900      4.86556   T  T  T
    9.52131     19.28652      4.61311   T  T  T
   10.88449     12.87490      3.47577   T  T  T
    1.49731     12.78231      5.93675   T  T  T
   -3.16934     19.87318      5.52359   T  T  T
   -0.31171     19.06761      7.06259   T  T  T
   -2.31759     15.85070      6.96920   T  T  T
    7.11616     13.76613      6.98186   T  T  T
    4.64465     10.70000      6.24607   T  T  T
    6.36501     17.71870      5.74248   T  T  T
    3.21722     16.94910      7.57108   T  T  T
   10.42263     11.72347      7.48851   T  T  T
   10.42285     15.82528      6.52638   T  T  T
    6.80708     10.98569      9.85326   T  T  T 
    6.58183     12.38879      9.69366   T  T  T
    7.03233      9.58259     10.01286   T  T  T





























































































































































































 






































































  
  
  
  
  
  
  
  
  
  
  

