1x4x2_1_1_1                             
   1.00000000000000
    15.5717000000000000    0.0000000000000000    0.0000000000000000
    -3.8134441900000000   20.3927060000000000    0.0000000000000000
     0.0000000000000000    0.0000000000000000   22.5174000000000000
    Ru    Mo     P     C   H   O
   60   60    60     5    4    2
Selective dynamics
cart
  -0.363   6.256   0.323     F  F  F
   4.303   5.034   0.467     F  F  F
   1.380   2.761   1.815     F  F  F
   3.515   1.066   1.518     F  F  F
   5.485   7.349   1.340     F  F  F
  10.151   6.127   1.484     F  F  F
   8.180   1.121   0.289     F  F  F
   8.409   9.622  22.510     F  F  F
  11.332   8.443   2.358     F  F  F
  14.028   2.214   1.306     F  F  F
  -2.269  16.452   0.323     F  F  F
   2.396  15.230   0.467     F  F  F
  -0.527  12.958   1.815     F  F  F
   1.608  11.262   1.518     F  F  F
   3.578  17.546   1.340     F  F  F
   8.244  16.324   1.484     F  F  F
   6.274  11.317   0.289     F  F  F
   6.502  19.818  22.510     F  F  F
   9.425  18.639   2.358     F  F  F
  12.121  12.411   1.306     F  F  F
  -1.324   8.825   3.145     T  T  T
   3.341   7.799   3.074     T  T  T
   0.201   5.437   4.570     T  T  T
   2.540   3.808   4.076     T  T  T
   4.482  10.124   3.870     T  T  T
   9.181   8.951   4.066     T  T  T
   7.222   3.834   2.825     T  T  T
   9.368   2.206   2.547     T  T  T
  12.467   1.062   5.088     T  T  T
  12.953   4.977   4.124     T  T  T
  15.170   1.658   5.597     T  T  T
   4.219   0.394   5.630     T  T  T
  -0.634   8.116   7.085     T  T  T
   1.703   6.476   6.662     T  T  T
   5.619   2.750   6.533     T  T  T
  10.170   1.385   6.513     T  T  T
   6.184   6.665   5.405     T  T  T
   8.334   5.007   5.121     T  T  T
  11.398   3.713   7.426     T  T  T
  12.068   8.000   6.571     T  T  T
  -3.230  19.021   3.145     T  T  T
   1.434  17.995   3.074     T  T  T
  -1.706  15.633   4.570     T  T  T
   0.633  14.004   4.076     T  T  T
   2.575  20.320   3.870     T  T  T
   7.275  19.148   4.066     T  T  T
   5.316  14.031   2.825     T  T  T
   7.462  12.402   2.547     T  T  T
  10.560  11.258   5.088     T  T  T
  11.047  15.173   4.124     T  T  T
  13.263  11.854   5.597     T  T  T
   2.312  10.590   5.630     T  T  T
  -2.541  18.312   7.085     T  T  T
  -0.203  16.672   6.662     T  T  T
   3.712  12.946   6.533     T  T  T
   8.263  11.581   6.513     T  T  T
   4.277  16.861   5.405     T  T  T
   6.428  15.204   5.121     T  T  T
   9.491  13.910   7.426     T  T  T
  10.161  18.197   6.571     T  T  T
  13.843   7.219   4.896     T  T  T
   4.960   2.353   3.614     T  T  T
   1.905   0.938   3.999     T  T  T
   0.991   8.264   4.630     T  T  T
   4.773   5.390   3.222     T  T  T
  10.727   3.539   4.710     T  T  T
   7.923   2.211   5.083     T  T  T
   7.748   6.684   2.956     T  T  T
  10.693   6.448   4.456     T  T  T
  14.591   0.687   3.219     T  T  T
  12.409  10.322   7.346     T  T  T
   4.005   5.110   6.201     T  T  T
   1.215   3.598   6.448     T  T  T
   1.780   1.031   6.938     T  T  T
   3.902   8.226   5.950     T  T  T
  10.032   6.182   6.802     T  T  T
   6.766   4.844   7.279     T  T  T
   6.740   9.504   5.491     T  T  T
   9.688   9.254   6.705     T  T  T
  13.841   3.696   6.246     T  T  T
  11.936  17.416   4.896     T  T  T
   3.053  12.549   3.614     T  T  T
  -0.002  11.134   3.999     T  T  T
  -0.916  18.461   4.630     T  T  T
   2.866  15.586   3.222     T  T  T
   8.820  13.736   4.710     T  T  T
   6.016  12.408   5.083     T  T  T
   5.841  16.881   2.956     T  T  T
   8.786  16.644   4.456     T  T  T
  12.684  10.883   3.219     T  T  T
  14.316   0.126   7.346     T  T  T
   2.098  15.306   6.201     T  T  T
  -0.691  13.795   6.448     T  T  T
  -0.126  11.227   6.938     T  T  T
   1.995  18.422   5.950     T  T  T
   8.125  16.379   6.802     T  T  T
   4.860  15.040   7.279     T  T  T
   4.833  19.701   5.491     T  T  T
   7.781  19.451   6.705     T  T  T
  11.934  13.892   6.246     T  T  T
  14.533   4.252   2.225     F  F  F
   4.058   9.777   1.114     F  F  F
   1.102   8.473   1.409     F  F  F
   1.885   5.551   1.925     F  F  F
   5.762   2.612   0.699     F  F  F
  11.813   0.675   2.131     F  F  F
   6.949   9.566   2.425     F  F  F
   8.686   3.911   0.399     F  F  F
  11.610   3.705   1.716     F  F  F
  13.750   7.926   0.900     F  F  F
  12.626  14.448   2.225     F  F  F
   2.152  19.974   1.114     F  F  F
  -0.805  18.669   1.409     F  F  F
  -0.022  15.747   1.925     F  F  F
   3.855  12.808   0.699     F  F  F
   9.906  10.871   2.131     F  F  F
   5.043  19.763   2.425     F  F  F
   6.779  14.107   0.399     F  F  F
   9.703  13.902   1.716     F  F  F
  11.843  18.122   0.900     F  F  F
   3.233   7.166   0.694     F  F  F
   0.743   4.131   0.104     F  F  F
   3.631   3.420   1.951     F  F  F
   1.263   0.407   1.382     F  F  F
   9.080   8.259   1.710     F  F  F
   6.590   5.224   1.120     F  F  F
  10.432   1.779   0.426     F  F  F
   7.110   1.501   2.399     F  F  F
  12.438   6.318   2.137     F  F  F
  12.004  10.057   0.874     F  F  F
   1.326  17.362   0.694     F  F  F
  -1.164  14.327   0.104     F  F  F
   1.724  13.616   1.951     F  F  F
  -0.644  10.604   1.382     F  F  F
   7.174  18.455   1.710     F  F  F
   4.684  15.421   1.120     F  F  F
   8.525  11.976   0.426     F  F  F
   5.203  11.697   2.399     F  F  F
  10.531  16.514   2.137     F  F  F
  10.097  20.253   0.874     F  F  F
   2.200   9.941   3.303     T  T  T
  -0.061   6.809   2.637     T  T  T
   2.607   6.169   4.537     T  T  T
   0.332   3.129   3.912     T  T  T
  10.043   0.861   4.280     T  T  T
   5.603   7.997   3.618     T  T  T
   9.454   4.592   2.945     T  T  T
   6.082   4.273   4.866     T  T  T
  11.428   9.090   4.613     T  T  T
  12.791   2.679   3.476     T  T  T
   3.404   2.586   5.937     T  T  T
  -1.263   9.677   5.524     T  T  T
   1.595   8.871   7.063     T  T  T
  -0.411   5.654   6.969     T  T  T
   9.023   3.570   6.982     T  T  T
   6.551   0.504   6.246     T  T  T
   8.272   7.522   5.742     T  T  T
   5.124   6.753   7.571     T  T  T
  12.329   1.527   7.489     T  T  T
  12.330   5.629   6.526     T  T  T
   0.293  20.137   3.303     T  T  T
  -1.968  17.005   2.637     T  T  T
   0.701  16.365   4.537     T  T  T
  -1.575  13.326   3.912     T  T  T
   8.137  11.057   4.280     T  T  T
   3.696  18.193   3.618     T  T  T
   7.547  14.788   2.945     T  T  T
   4.175  14.469   4.866     T  T  T
   9.521  19.287   4.613     T  T  T
  10.884  12.875   3.476     T  T  T
   1.497  12.782   5.937     T  T  T
  -3.169  19.873   5.524     T  T  T
  -0.312  19.068   7.063     T  T  T
  -2.318  15.851   6.969     T  T  T
   7.116  13.766   6.982     T  T  T
   4.645  10.700   6.246     T  T  T
   6.365  17.719   5.742     T  T  T
   3.217  16.949   7.571     T  T  T
  10.423  11.723   7.489     T  T  T
  10.423  15.825   6.526     T  T  T
   7.687   3.610  14.294     T  T  T
   6.816   4.679  14.228     T  T  T
   6.724   5.053  12.833     T  T  T
   7.544   4.189  12.137     T  T  T
   7.932   3.995  10.660     T  T  T
   8.082   2.982  15.085     T  T  T
   6.293   5.160  15.049     T  T  T
   6.119   5.862  12.434     T  T  T
   8.615   3.218  10.384     T  T  T
   8.149   3.290  13.016     T  T  T
   7.381   4.852   9.657     T  T  T





































































































































 
 
 
 
 
 
 
 
 
 
 
 
 
 
 
 
 
 
 
 
  
 
 
 
 
 
 
 
 
 
 
 
 
 
 
 
 
 
 
 
 
 
 
 
 
 
 
 
 
 
 
 
 
 
 
 
 
 
 
 
 
 
 
 
 
 
 
 
 
 
 
 
 
 
 
 
 
 
 
 
 
 
 
 
 
 
 
 
 
 
 
 
 
 
 
 
 
 
 
 
 
 
 
 
 
 
 
 
 
 
 
 
  
 
 
 
 
 
 
 
 
 
 
 
 
 
 
 
   
 
 
 
 
 
 
 
 
 
 
 
 
 
 
 
 
 
 
 
 
 
 
 
 
 
 
 
 
 
 
 
  
 
 
 
 
 
 
 
 
 
 
 
 
 
 
 
 
 
 
 
 
 
 
 
 
 
 
 
 
 
 



















  
  
  
  
  
  
  
  
  
  
  

