2x2x3_1_1_1                             
   1.00000000000000     
    13.8666000000000000    0.0000000000000000    0.0000000000000000
    13.8666729100000001   20.3031101599999992    0.0000000000000000
     0.0000000000000000    0.0000000000000000   21.9914999999999985
   Ni   Mo   P    C    H    O 
    48    48    48     9     8     1
Selective dynamics
Direct
  0.4684090817533385  0.4362081763542122  0.1929517329773610   T   T   T
  0.1985071237405726  0.2479188284053923  0.2087830536798023   T   T   T
  0.3418357236886185  0.0635406422628087  0.1880938970157739   T   T   T
  0.4028102222494323  0.1905893659547556  0.2580662894142300   T   T   T
  0.1391729773870598 -0.0006873080507260  0.2699528582100796   T   T   T
  0.2760832229237088  0.3103552147183606  0.2574350420257446   T   T   T
  0.4685557841318800  0.9366028276559690  0.1881684035884288   T   T   T
  0.1992507478489966  0.7488878066940279  0.2081612497854426   T   T   T
  0.3398828865671824  0.5621041285163031  0.1882707411156345   T   T   T
  0.3888230406946153  0.6858500727955144  0.2667768821371246   T   T   T
  0.1311029175338386  0.5008440270909289  0.2712680393808059   T   T   T
  0.2817019324537458  0.8085729915411017  0.2581460330737661   T   T   T
  0.9687498921535697  0.4374759945881281  0.1872980999790032   T   T   T
  0.6970687511752464  0.2501461534710144  0.2081541560504220   T   T   T
  0.8414239374003769  0.0637394187443673  0.1878688668950636   T   T   T
  0.8993075208378830  0.1903538037004229  0.2581895603604707   T   T   T
  0.6392937764543323  0.0001025071320101  0.2699945416770000   T   T   T
  0.7714613333613193  0.3106136230571785  0.2578968416846658   T   T   T
  0.9692387534241953  0.9358208406635792  0.1878997834322249   T   T   T
  0.6948112054157721  0.7521426677786277  0.2086558415007968   T   T   T
  0.8432536125893645  0.5623181681675126  0.1868842907667836   T   T   T
  0.8967338980390253  0.6900657302281299  0.2578307828616432   T   T   T
  0.6314318335202046  0.5010157097458948  0.2752153588286239   T   T   T
  0.7830054152286535  0.8098005981040629  0.2582817800308447   T   T   T
  0.1073099999935323  0.4374099997495193  0.0452522556442290   F   F   F
  0.3392000001802913  0.2500000000000000  0.0629767373758057   F   F   F
  0.4821399998482860  0.0625799998122076  0.0452522556442290   F   F   F
  0.0359599996108457  0.1874200001877924  0.1164447732078315   F   F   F
  0.2678500000000028  0.0000000000000000  0.1341692549394082   F   F   F
  0.4107900003187197  0.3125899997579467  0.1164447732078315   F   F   F
  0.1073100003541114  0.9374099997495193  0.0452522556442290   F   F   F
  0.3391999998197122  0.7500000000000000  0.0629767373758057   F   F   F
  0.4821400004990082  0.5625899997579467  0.0452522556442290   F   F   F
  0.0359600001738158  0.6874099997495193  0.1164447732078315   F   F   F
  0.2678499996394237  0.5000000000000000  0.1341692549394082   F   F   F
  0.4107899999581406  0.8125899997579467  0.1164447732078315   F   F   F
  0.6073099999935323  0.4374099997495193  0.0452522556442290   F   F   F
  0.8392000001802913  0.2500000000000000  0.0629767373758057   F   F   F
  0.9821399998482860  0.0625799998122076  0.0452522556442290   F   F   F
  0.5359599996108457  0.1874200001877924  0.1164447732078315   F   F   F
  0.7678500000000028  0.0000000000000000  0.1341692549394082   F   F   F
  0.9107900003187197  0.3125899997579467  0.1164447732078315   F   F   F
  0.6073100003541114  0.9374099997495193  0.0452522556442290   F   F   F
  0.8391999998197122  0.7500000000000000  0.0629767373758057   F   F   F
  0.9821400004990082  0.5625899997579467  0.0452522556442290   F   F   F
  0.5359600001738158  0.6874099997495193  0.1164447732078315   F   F   F
  0.7678499996394237  0.5000000000000000  0.1341692549394082   F   F   F
  0.9107899999581406  0.8125899997579467  0.1164447732078315   F   F   F
  0.2513899999589668  0.1033800000817209  0.0691958538526265   F   F   F
  0.1477500001802881  0.2500000000000000  0.0863147902598698   F   F   F
  0.4581500001131502  0.3966199999182791  0.0691958538526265   F   F   F
  0.1800400001392575  0.3533800000817209  0.1403720050928783   F   F   F
  0.0763999999999996  0.0000000000000000  0.1575073078234794   F   F   F
  0.3867999999328617  0.1466199999182791  0.1403720050928783   F   F   F
  0.2513899995983877  0.6033800000817209  0.0691958538526265   F   F   F
  0.1477499998197089  0.7500000000000000  0.0863147902598698   F   F   F
  0.4581499997525711  0.8966199999182791  0.0691958538526265   F   F   F
  0.1800400002712124  0.8533799995891869  0.1403720050928783   F   F   F
  0.0763999996394205  0.5000000000000000  0.1575073078234794   F   F   F
  0.3868000002934409  0.6466199999182791  0.1403720050928783   F   F   F
  0.7513899999589668  0.1033800000817209  0.0691958538526265   F   F   F
  0.6477500001802881  0.2500000000000000  0.0863147902598698   F   F   F
  0.9581500001131502  0.3966199999182791  0.0691958538526265   F   F   F
  0.6800400001392575  0.3533800000817209  0.1403720050928783   F   F   F
  0.5763999999999996  0.0000000000000000  0.1575073078234794   F   F   F
  0.8867999999328617  0.1466199999182791  0.1403720050928783   F   F   F
  0.7513899995983877  0.6033800000817209  0.0691958538526265   F   F   F
  0.6477499998197089  0.7500000000000000  0.0863147902598698   F   F   F
  0.9581499997525711  0.8966199999182791  0.0691958538526265   F   F   F
  0.6800400002712124  0.8533799995891869  0.1403720050928783   F   F   F
  0.5763999996394205  0.5000000000000000  0.1575073078234794   F   F   F
  0.8868000002934409  0.6466199999182791  0.1403720050928783   F   F   F
  0.1113020525798400  0.1035997939940812  0.2131639382220522   T   T   T
 -0.0002790731336621  0.2548820398732141  0.2316149783020913   T   T   T
  0.3144963857850392  0.3977326141719809  0.2117989680330888   T   T   T
  0.0182027000274374  0.3445444409020972  0.2709340086883662   T   T   T
  0.4490480301599221  0.0004351173361128  0.2890346244018653   T   T   T
  0.1830287258008433  0.1598695367950622  0.2741172897809628   T   T   T
  0.1100492053586152  0.6030252359100327  0.2119045465118817   T   T   T
  0.0209054821335142  0.7380282076123286  0.2345476040970049   T   T   T
  0.3184625868880641  0.8962041191654029  0.2128839931878209   T   T   T
  0.0061895850510241  0.8379834021233685  0.2723498573107342   T   T   T
  0.4364544257504836  0.4988644450230876  0.3004323319905701   T   T   T
  0.2305726327570916  0.6549340272338245  0.2768012058982412   T   T   T
  0.6118135654236257  0.1036748940426518  0.2127792190522124   T   T   T
  0.4973985713243737  0.2607310790419862  0.2325837386938550   T   T   T
  0.8167813598907625  0.3970951694387679  0.2144060808676124   T   T   T
  0.5421402244863565  0.3419070870827057  0.2803639508655816   T   T   T
  0.9488934890390359  0.9995089696062310  0.2889575775300374   T   T   T
  0.6824000939865426  0.1622531642497304  0.2725196227802731   T   T   T
  0.6106158680693241  0.6033394515307368  0.2125863549335016   T   T   T
  0.5111854560072489  0.7442183697138325  0.2318229043800830   T   T   T
  0.8193089318273941  0.8961995059033996  0.2127786862812330   T   T   T
  0.5036575582259988  0.8396290285066390  0.2738524189811536   T   T   T
  0.9406351519259318  0.5009378908499384  0.2886292894873188   T   T   T
  0.7098396109622982  0.6548873141535018  0.2703443341143382   T   T   T
  0.0263250172023423  0.3349829586799800  0.1639267563248966   T   T   T
  0.1957789582786104  0.1658671851960017  0.1651293893586422   T   T   T
  0.3536280123053412  0.2498039518911674  0.1702701853075771   T   T   T
  0.4546307578596627  0.0888700843963414  0.2507809212653986   T   T   T
  0.1290449414880822  0.4123179273175966  0.2526247620317144   T   T   T
  0.2924380224248324 -0.0002308321086968  0.2479196804153123   T   T   T
  0.0292604776667373  0.8324157528975380  0.1649950981633482   T   T   T
  0.1944507482150243  0.6642109157266192  0.1638510143175038   T   T   T
  0.3545927936238407  0.7493744311244819  0.1710127509263484   T   T   T
  0.4555909291544453  0.5826062374872656  0.2428154301571344   T   T   T
  0.1309686570329572  0.9107776384198875  0.2504348199949085   T   T   T
  0.2848803719377266  0.5016084173804036  0.2475739408787352   T   T   T
  0.5227220372407836  0.3363053937071626  0.1646948778465323   T   T   T
  0.6943985291431642  0.1671031172503527  0.1650624326836928   T   T   T
  0.8526593330735588  0.2499452485230131  0.1691662356924274   T   T   T
  0.9540282100403468  0.0881302986816652  0.2501845620342453   T   T   T
  0.6275096634206448  0.4141608912641933  0.2512572316550698   T   T   T
  0.7923642129157332  0.9998125817208539  0.2469607812487316   T   T   T
  0.5275665695010819  0.8339479044891411  0.1651502719419754   T   T   T
  0.6959718704876012  0.6652731763042945  0.1636207374798635   T   T   T
  0.8542432794273809  0.7502365120437493  0.1706323375409015   T   T   T
  0.9520555166791466  0.5885191185466221  0.2514951014389125   T   T   T
  0.6315765412071982  0.9117240168079184  0.2507325656815709   T   T   T
  0.7850746182564707  0.5004903327177377  0.2460075548623662   T   T   T
  0.1666666662621026  0.3333333334975137  0.0274295768819783   F   F   F
  0.3333333333773183  0.1666666665024863  0.0274459432053291   F   F   F
  0.5000000001802860  0.2500000000000000  0.0274295768819783   F   F   F
  0.0953100000114588  0.0833300000180870  0.0986220944455809   F   F   F
  0.2619800000606531  0.4166699999819130  0.0986220944455809   F   F   F
  0.4286499999999975  0.0000000000000000  0.0986220944455809   F   F   F
  0.1666666671152157  0.8333333330049797  0.0274295768819783   F   F   F
  0.3333333337378974  0.6666666665024863  0.0274459432053291   F   F   F
  0.4999999998197140  0.7500000000000000  0.0274295768819783   F   F   F
  0.0953099999410227  0.5833399999638260  0.0986220944455809   F   F   F
  0.2619799997000740  0.9166699999819130  0.0986220944455809   F   F   F
  0.4286499996394184  0.5000000000000000  0.0986220944455809   F   F   F
  0.6666666662621026  0.3333333334975137  0.0274295768819783   F   F   F
  0.8333333333773183  0.1666666665024863  0.0274459432053291   F   F   F
  0.0000000001802860  0.2500000000000000  0.0274295768819783   F   F   F
  0.5953100000114588  0.0833300000180870  0.0986220944455809   F   F   F
  0.7619800000606531  0.4166699999819130  0.0986220944455809   F   F   F
  0.9286499999999975  0.0000000000000000  0.0986220944455809   F   F   F
  0.6666666671152157  0.8333333330049797  0.0274295768819783   F   F   F
  0.8333333337378974  0.6666666665024863  0.0274459432053291   F   F   F
  0.9999999998197140  0.7500000000000000  0.0274295768819783   F   F   F
  0.5953099999410227  0.5833399999638260  0.0986220944455809   F   F   F
  0.7619799997000740  0.9166699999819130  0.0986220944455809   F   F   F
  0.9286499996394184  0.5000000000000000  0.0986220944455809   F   F   F
  0.3233645269399656  0.6870185199668779  0.3629381450522499   T   T   T
  0.2856421318132153  0.6437384248248396  0.3751105795269167   T   T   T
  0.3759902896898615  0.5731168481484958  0.3838117770342951   T   T   T
  0.4975096412866792  0.5508912482184048  0.3850008100275467   T   T   T
  0.5292491660811218  0.5955245985017414  0.3764983943347948   T   T   T
  0.4447978929411808  0.6625621568856439  0.3634631197541062   T   T   T
  0.3484433478411583  0.5252936742494618  0.3904617215955942   T   T   T
  0.4433242438266399  0.4562565844377980  0.3925277839746621   T   T   T
  0.4243574574536174  0.4096323393453315  0.3676926573561480   T   T   T
  0.2570307509911263  0.5413895074809307  0.3920815176680313   T   T   T
  0.5258045784871976  0.4369886675037549  0.4164162186837949   T   T   T
  0.3346963411136406  0.4235435611891238  0.3601452418554634   T   T   T
  0.2602551078055235  0.7398136922952627  0.3697757425915005   T   T   T
  0.2027438506948203  0.6646664454190846  0.3993800715551340   T   T   T
  0.5625839037389625  0.5030865458142232  0.4047521050688623   T   T   T
  0.6199928751528657  0.5787451770529094  0.3837142719756294   T   T   T
  0.4697301612482382  0.6973552086692661  0.3668582977960814   T   T   T
  0.5085839675088286  0.3444538009385501  0.3676295197481594   T   T   T
 
  0.00000000E+00  0.00000000E+00  0.00000000E+00
  0.00000000E+00  0.00000000E+00  0.00000000E+00
  0.00000000E+00  0.00000000E+00  0.00000000E+00
  0.00000000E+00  0.00000000E+00  0.00000000E+00
  0.00000000E+00  0.00000000E+00  0.00000000E+00
  0.00000000E+00  0.00000000E+00  0.00000000E+00
  0.00000000E+00  0.00000000E+00  0.00000000E+00
  0.00000000E+00  0.00000000E+00  0.00000000E+00
  0.00000000E+00  0.00000000E+00  0.00000000E+00
  0.00000000E+00  0.00000000E+00  0.00000000E+00
  0.00000000E+00  0.00000000E+00  0.00000000E+00
  0.00000000E+00  0.00000000E+00  0.00000000E+00
  0.00000000E+00  0.00000000E+00  0.00000000E+00
  0.00000000E+00  0.00000000E+00  0.00000000E+00
  0.00000000E+00  0.00000000E+00  0.00000000E+00
  0.00000000E+00  0.00000000E+00  0.00000000E+00
  0.00000000E+00  0.00000000E+00  0.00000000E+00
  0.00000000E+00  0.00000000E+00  0.00000000E+00
  0.00000000E+00  0.00000000E+00  0.00000000E+00
  0.00000000E+00  0.00000000E+00  0.00000000E+00
  0.00000000E+00  0.00000000E+00  0.00000000E+00
  0.00000000E+00  0.00000000E+00  0.00000000E+00
  0.00000000E+00  0.00000000E+00  0.00000000E+00
  0.00000000E+00  0.00000000E+00  0.00000000E+00
  0.00000000E+00  0.00000000E+00  0.00000000E+00
  0.00000000E+00  0.00000000E+00  0.00000000E+00
  0.00000000E+00  0.00000000E+00  0.00000000E+00
  0.00000000E+00  0.00000000E+00  0.00000000E+00
  0.00000000E+00  0.00000000E+00  0.00000000E+00
  0.00000000E+00  0.00000000E+00  0.00000000E+00
  0.00000000E+00  0.00000000E+00  0.00000000E+00
  0.00000000E+00  0.00000000E+00  0.00000000E+00
  0.00000000E+00  0.00000000E+00  0.00000000E+00
  0.00000000E+00  0.00000000E+00  0.00000000E+00
  0.00000000E+00  0.00000000E+00  0.00000000E+00
  0.00000000E+00  0.00000000E+00  0.00000000E+00
  0.00000000E+00  0.00000000E+00  0.00000000E+00
  0.00000000E+00  0.00000000E+00  0.00000000E+00
  0.00000000E+00  0.00000000E+00  0.00000000E+00
  0.00000000E+00  0.00000000E+00  0.00000000E+00
  0.00000000E+00  0.00000000E+00  0.00000000E+00
  0.00000000E+00  0.00000000E+00  0.00000000E+00
  0.00000000E+00  0.00000000E+00  0.00000000E+00
  0.00000000E+00  0.00000000E+00  0.00000000E+00
  0.00000000E+00  0.00000000E+00  0.00000000E+00
  0.00000000E+00  0.00000000E+00  0.00000000E+00
  0.00000000E+00  0.00000000E+00  0.00000000E+00
  0.00000000E+00  0.00000000E+00  0.00000000E+00
  0.00000000E+00  0.00000000E+00  0.00000000E+00
  0.00000000E+00  0.00000000E+00  0.00000000E+00
  0.00000000E+00  0.00000000E+00  0.00000000E+00
  0.00000000E+00  0.00000000E+00  0.00000000E+00
  0.00000000E+00  0.00000000E+00  0.00000000E+00
  0.00000000E+00  0.00000000E+00  0.00000000E+00
  0.00000000E+00  0.00000000E+00  0.00000000E+00
  0.00000000E+00  0.00000000E+00  0.00000000E+00
  0.00000000E+00  0.00000000E+00  0.00000000E+00
  0.00000000E+00  0.00000000E+00  0.00000000E+00
  0.00000000E+00  0.00000000E+00  0.00000000E+00
  0.00000000E+00  0.00000000E+00  0.00000000E+00
  0.00000000E+00  0.00000000E+00  0.00000000E+00
  0.00000000E+00  0.00000000E+00  0.00000000E+00
  0.00000000E+00  0.00000000E+00  0.00000000E+00
  0.00000000E+00  0.00000000E+00  0.00000000E+00
  0.00000000E+00  0.00000000E+00  0.00000000E+00
  0.00000000E+00  0.00000000E+00  0.00000000E+00
  0.00000000E+00  0.00000000E+00  0.00000000E+00
  0.00000000E+00  0.00000000E+00  0.00000000E+00
  0.00000000E+00  0.00000000E+00  0.00000000E+00
  0.00000000E+00  0.00000000E+00  0.00000000E+00
  0.00000000E+00  0.00000000E+00  0.00000000E+00
  0.00000000E+00  0.00000000E+00  0.00000000E+00
  0.00000000E+00  0.00000000E+00  0.00000000E+00
  0.00000000E+00  0.00000000E+00  0.00000000E+00
  0.00000000E+00  0.00000000E+00  0.00000000E+00
  0.00000000E+00  0.00000000E+00  0.00000000E+00
  0.00000000E+00  0.00000000E+00  0.00000000E+00
  0.00000000E+00  0.00000000E+00  0.00000000E+00
  0.00000000E+00  0.00000000E+00  0.00000000E+00
  0.00000000E+00  0.00000000E+00  0.00000000E+00
  0.00000000E+00  0.00000000E+00  0.00000000E+00
  0.00000000E+00  0.00000000E+00  0.00000000E+00
  0.00000000E+00  0.00000000E+00  0.00000000E+00
  0.00000000E+00  0.00000000E+00  0.00000000E+00
  0.00000000E+00  0.00000000E+00  0.00000000E+00
  0.00000000E+00  0.00000000E+00  0.00000000E+00
  0.00000000E+00  0.00000000E+00  0.00000000E+00
  0.00000000E+00  0.00000000E+00  0.00000000E+00
  0.00000000E+00  0.00000000E+00  0.00000000E+00
  0.00000000E+00  0.00000000E+00  0.00000000E+00
  0.00000000E+00  0.00000000E+00  0.00000000E+00
  0.00000000E+00  0.00000000E+00  0.00000000E+00
  0.00000000E+00  0.00000000E+00  0.00000000E+00
  0.00000000E+00  0.00000000E+00  0.00000000E+00
  0.00000000E+00  0.00000000E+00  0.00000000E+00
  0.00000000E+00  0.00000000E+00  0.00000000E+00
  0.00000000E+00  0.00000000E+00  0.00000000E+00
  0.00000000E+00  0.00000000E+00  0.00000000E+00
  0.00000000E+00  0.00000000E+00  0.00000000E+00
  0.00000000E+00  0.00000000E+00  0.00000000E+00
  0.00000000E+00  0.00000000E+00  0.00000000E+00
  0.00000000E+00  0.00000000E+00  0.00000000E+00
  0.00000000E+00  0.00000000E+00  0.00000000E+00
  0.00000000E+00  0.00000000E+00  0.00000000E+00
  0.00000000E+00  0.00000000E+00  0.00000000E+00
  0.00000000E+00  0.00000000E+00  0.00000000E+00
  0.00000000E+00  0.00000000E+00  0.00000000E+00
  0.00000000E+00  0.00000000E+00  0.00000000E+00
  0.00000000E+00  0.00000000E+00  0.00000000E+00
  0.00000000E+00  0.00000000E+00  0.00000000E+00
  0.00000000E+00  0.00000000E+00  0.00000000E+00
  0.00000000E+00  0.00000000E+00  0.00000000E+00
  0.00000000E+00  0.00000000E+00  0.00000000E+00
  0.00000000E+00  0.00000000E+00  0.00000000E+00
  0.00000000E+00  0.00000000E+00  0.00000000E+00
  0.00000000E+00  0.00000000E+00  0.00000000E+00
  0.00000000E+00  0.00000000E+00  0.00000000E+00
  0.00000000E+00  0.00000000E+00  0.00000000E+00
  0.00000000E+00  0.00000000E+00  0.00000000E+00
  0.00000000E+00  0.00000000E+00  0.00000000E+00
  0.00000000E+00  0.00000000E+00  0.00000000E+00
  0.00000000E+00  0.00000000E+00  0.00000000E+00
  0.00000000E+00  0.00000000E+00  0.00000000E+00
  0.00000000E+00  0.00000000E+00  0.00000000E+00
  0.00000000E+00  0.00000000E+00  0.00000000E+00
  0.00000000E+00  0.00000000E+00  0.00000000E+00
  0.00000000E+00  0.00000000E+00  0.00000000E+00
  0.00000000E+00  0.00000000E+00  0.00000000E+00
  0.00000000E+00  0.00000000E+00  0.00000000E+00
  0.00000000E+00  0.00000000E+00  0.00000000E+00
  0.00000000E+00  0.00000000E+00  0.00000000E+00
  0.00000000E+00  0.00000000E+00  0.00000000E+00
  0.00000000E+00  0.00000000E+00  0.00000000E+00
  0.00000000E+00  0.00000000E+00  0.00000000E+00
  0.00000000E+00  0.00000000E+00  0.00000000E+00
  0.00000000E+00  0.00000000E+00  0.00000000E+00
  0.00000000E+00  0.00000000E+00  0.00000000E+00
  0.00000000E+00  0.00000000E+00  0.00000000E+00
  0.00000000E+00  0.00000000E+00  0.00000000E+00
  0.00000000E+00  0.00000000E+00  0.00000000E+00
  0.00000000E+00  0.00000000E+00  0.00000000E+00
  0.00000000E+00  0.00000000E+00  0.00000000E+00
  0.00000000E+00  0.00000000E+00  0.00000000E+00
  0.00000000E+00  0.00000000E+00  0.00000000E+00
  0.00000000E+00  0.00000000E+00  0.00000000E+00
  0.00000000E+00  0.00000000E+00  0.00000000E+00
  0.00000000E+00  0.00000000E+00  0.00000000E+00
  0.00000000E+00  0.00000000E+00  0.00000000E+00
  0.00000000E+00  0.00000000E+00  0.00000000E+00
  0.00000000E+00  0.00000000E+00  0.00000000E+00
  0.00000000E+00  0.00000000E+00  0.00000000E+00
  0.00000000E+00  0.00000000E+00  0.00000000E+00
  0.00000000E+00  0.00000000E+00  0.00000000E+00
  0.00000000E+00  0.00000000E+00  0.00000000E+00
  0.00000000E+00  0.00000000E+00  0.00000000E+00
  0.00000000E+00  0.00000000E+00  0.00000000E+00
  0.00000000E+00  0.00000000E+00  0.00000000E+00
  0.00000000E+00  0.00000000E+00  0.00000000E+00
  0.00000000E+00  0.00000000E+00  0.00000000E+00
  0.00000000E+00  0.00000000E+00  0.00000000E+00
  0.00000000E+00  0.00000000E+00  0.00000000E+00
  0.00000000E+00  0.00000000E+00  0.00000000E+00
