SYSTEM = 2_2_1-1-1
PREC = Normal
ENCUT = 450
ISPIN = 2
ICHARG = 0
#ISTART = 2
NSW = 200
NWRITE = 3
IBRION = 2
NFREE = 3
ALGO = V
EDIFF = 1.0E-4
EDIFFG = -0.03
POTIM = 0.5
LREAL= A
LVTOT = .TRUE.
GGA = BO
PARAM1 = 0.1833333333
PARAM2 = 0.2200000000
LUSE_VDW = .TRUE.
AGGAC = 0.0000
ISMEAR = 1
SIGMA = 0.1
LSORBIT = .FALSE.
LNONCOLLINEAR = .FALSE.
LAECHG=.TRUE.
LORBIT = 11
IDIPOL = 4
#MAGMOM = 48*1 48*1 48*0
IMIX = 4
WC = 1000
INIMIX = 1
MIXPRE = 1
MAXMIX = -45

