2x2x3_1_1_1
   1.00000000000000
    14.32030000    0.00000000    0.00000000
    -8.29402641   19.01593127    0.00000000
     0.00000000    0.00000000   21.98800000
    48    48    48   6   6   1
Selective dynamics
cart
  -1.87058130    5.96548780    0.75011664  F   F   F
   0.26696804    2.80085652    2.44934536  F   F   F
   0.67269113    8.92569782    0.20491352  F   F   F
   2.81024047    5.76106654    1.90377236  F   F   F
  -6.01759451   15.47345343    0.75011664  F   F   F
  -3.88004517   12.30882215    2.44934536  F   F   F
  -3.47432207   18.43366345    0.20491352  F   F   F
  -1.33677273   15.26903217    1.90377236  F   F   F
   5.28956870    5.96548780    0.75011664  F   F   F
   7.42711804    2.80085652    2.44934536  F   F   F
   7.83284113    8.92569782    0.20491352  F   F   F
   9.97039047    5.76106654    1.90377236  F   F   F
   1.14255549   15.47345343    0.75011664  F   F   F
   3.28010483   12.30882215    2.44934536  F   F   F
   3.68582793   18.43366345    0.20491352  F   F   F
   5.82337727   15.26903217    1.90377236  F   F   F
   3.21609107    8.18407650    3.12215708  T   T   T
  -1.80650959    5.01944522    4.82101592  T   T   T
   2.74622671    1.63632089    2.57658408  T   T   T
   0.73676285    7.97965524    4.27544292  T   T   T
   5.28962665    0.89469957    5.49382764  T   T   T
   3.28016278    7.23803392    7.19268648  T   T   T
   0.67274908    3.85490959    4.94825464  T   T   T
   2.81029842    0.69027831    6.64748336  T   T   T
  -0.93092213   17.69204213    3.12215708  T   T   T
  -5.95352279   14.52741085    4.82101592  T   T   T
  -1.40078649   11.14428652    2.57658408  T   T   T
  -3.41025036   17.48762087    4.27544292  T   T   T
   1.14261344   10.40266520    5.49382764  T   T   T
  -0.86685042   16.74599955    7.19268648  T   T   T
  -3.47426412   13.36287522    4.94825464  T   T   T
  -1.33671478   10.19824394    6.64748336  T   T   T
  10.37624107    8.18407650    3.12215708  T   T   T
   5.35364041    5.01944522    4.82101592  T   T   T
   9.90637671    1.63632089    2.57658408  T   T   T
   7.89691285    7.97965524    4.27544292  T   T   T
  12.44977665    0.89469957    5.49382764  T   T   T
  10.44031278    7.23803392    7.19268648  T   T   T
   7.83289908    3.85490959    4.94825464  T   T   T
   9.97044842    0.69027831    6.64748336  T   T   T
   6.22922787   17.69204213    3.12215708  T   T   T
   1.20662721   14.52741085    4.82101592  T   T   T
   5.75936351   11.14428652    2.57658408  T   T   T
   3.74989964   17.48762087    4.27544292  T   T   T
   8.30276344   10.40266520    5.49382764  T   T   T
   6.29329958   16.74599955    7.19268648  T   T   T
   3.68588588   13.36287522    4.94825464  T   T   T
   5.82343522   10.19824394    6.64748336  T   T   T
   2.62802926    5.91452510    4.73113508  T   T   T
   0.85494272    1.04435495    4.60685540  T   T   T
   0.08477440    5.61141116    2.79074460  T   T   T
   5.47183785    0.74124100    2.66646492  T   T   T
   0.55455164    8.13311380    7.10280564  T   T   T
  -1.21853490    3.26294365    6.97852596  T   T   T
  -1.98870323    7.82999986    5.16278504  T   T   T
   3.39821702    2.95982970    5.03850536  T   T   T
  -1.51898394   15.42249074    4.73113508  T   T   T
  -3.29207048   10.55232058    4.60685540  T   T   T
  -4.06223881   15.11937679    2.79074460  T   T   T
   1.32482465   10.24920663    2.66646492  T   T   T
  -3.59246157   17.64107944    7.10280564  T   T   T
  -5.36554811   12.77090928    6.97852596  T   T   T
  -6.13571643   17.33796549    5.16278504  T   T   T
  -0.74879618   12.46779534    5.03850536  T   T   T
   9.78817926    5.91452510    4.73113508  T   T   T
   8.01509272    1.04435495    4.60685540  T   T   T
   7.24492440    5.61141116    2.79074460  T   T   T
  12.63198785    0.74124100    2.66646492  T   T   T
   7.71470164    8.13311380    7.10280564  T   T   T
   5.94161510    3.26294365    6.97852596  T   T   T
   5.17144677    7.82999986    5.16278504  T   T   T
  10.55836702    2.95982970    5.03850536  T   T   T
   5.64116606   15.42249074    4.73113508  T   T   T
   3.86807952   10.55232058    4.60685540  T   T   T
   3.09791119   15.11937679    2.79074460  T   T   T
   8.48497465   10.24920663    2.66646492  T   T   T
   3.56768843   17.64107944    7.10280564  T   T   T
   1.79460189   12.77090928    6.97852596  T   T   T
   1.02443357   17.33796549    5.16278504  T   T   T
   6.41135382   12.46779534    5.03850536  T   T   T
   4.70150689    3.69593640    2.35909464  F   F   F
  -1.21859285    8.33373188    2.23481496  F   F   F
   2.15825202    3.39282246    0.41907404  F   F   F
   3.39830228    8.03061793    0.29479436  F   F   F
   0.55449369   13.20390203    2.35909464  F   F   F
  -5.36560606   17.84169751    2.23481496  F   F   F
  -1.98876118   12.90078809    0.41907404  F   F   F
  -0.74871092   17.53858357    0.29479436  F   F   F
  11.86165689    3.69593640    2.35909464  F   F   F
   5.94155715    8.33373188    2.23481496  F   F   F
   9.31840202    3.39282246    0.41907404  F   F   F
  10.55845228    8.03061793    0.29479436  F   F   F
   7.71464369   13.20390203    2.35909464  F   F   F
   1.79454394   17.84169751    2.23481496  F   F   F
   5.17138882   12.90078809    0.41907404  F   F   F
   6.41143908   17.53858357    0.29479436  F   F   F
   1.25717895    7.58431403    1.97072064  F   F   F
   4.29920841    1.69127693    0.75307568  F   F   F
   0.78732076    0.52731177    1.90118320  F   F   F
  -0.31751978    4.14224031    0.68353824  F   F   F
  -2.88983426   17.09227966    1.97072064  F   F   F
   0.15219521   11.19924256    0.75307568  F   F   F
  -3.35969244   10.03527741    1.90118320  F   F   F
  -4.46453298   13.65020594    0.68353824  F   F   F
   8.41732895    7.58431403    1.97072064  F   F   F
  11.45935841    1.69127693    0.75307568  F   F   F
   7.94747076    0.52731177    1.90118320  F   F   F
   6.84263022    4.14224031    0.68353824  F   F   F
   4.27031574   17.09227966    1.97072064  F   F   F
   7.31234521   11.19924256    0.75307568  F   F   F
   3.80045756   10.03527741    1.90118320  F   F   F
   2.69561702   13.65020594    0.68353824  F   F   F
   3.33071452    0.29493709    4.34239120  T   T   T
   2.22573078    3.90986563    3.12474624  T   T   T
   5.87399313    2.74590048    4.27285376  T   T   T
  -2.39099740    6.36082901    3.05520880  T   T   T
   1.25723689    2.51352579    6.71406176  T   T   T
   0.15225316    6.12845433    5.49641680  T   T   T
   3.80051551    4.96448918    6.64452432  T   T   T
   2.69567497    8.57941771    5.42687936  T   T   T
  -0.81629868    9.80290273    4.34239120  T   T   T
  -1.92128242   13.41783126    3.12474624  T   T   T
   1.72697993   12.25386611    4.27285376  T   T   T
  -6.53801061   15.86879464    3.05520880  T   T   T
  -2.88977631   12.02149143    6.71406176  T   T   T
  -3.99476005   15.63641996    5.49641680  T   T   T
  -0.34649770   14.47245481    6.64452432  T   T   T
  -1.45133823   18.08738334    5.42687936  T   T   T
  10.49086452    0.29493709    4.34239120  T   T   T
   9.38588078    3.90986563    3.12474624  T   T   T
  13.03414313    2.74590048    4.27285376  T   T   T
   4.76915260    6.36082901    3.05520880  T   T   T
   8.41738689    2.51352579    6.71406176  T   T   T
   7.31240316    6.12845433    5.49641680  T   T   T
  10.96066551    4.96448918    6.64452432  T   T   T
   9.85582497    8.57941771    5.42687936  T   T   T
   6.34385132    9.80290273    4.34239120  T   T   T
   5.23886758   13.41783126    3.12474624  T   T   T
   8.88712993   12.25386611    4.27285376  T   T   T
   0.62213939   15.86879464    3.05520880  T   T   T
   4.27037369   12.02149143    6.71406176  T   T   T
   3.16538995   15.63641996    5.49641680  T   T   T
   6.81365230   14.47245481    6.64452432  T   T   T
   5.70881177   18.08738334    5.42687936  T   T   T
   0.49364239    8.13885019   10.88078152  T   T   T
   1.68663653    8.16423916   11.60368664  T   T   T
   1.65694886    8.20028004   12.99761684  T   T   T
   0.43384007    8.21214460   13.66924224  T   T   T
  -0.75882983    8.18723905   12.94643158  T   T   T
  -0.72895462    8.15019258   11.55210561  T   T   T
   2.65034800    8.15451139   11.07415160  T   T   T
   2.59724161    8.21965967   13.56750322  T   T   T
   0.41068203    8.24062203   14.76830961  T   T   T
  -1.72294405    8.19658930   13.47545953  T   T   T
  -1.66931622    8.13036558   10.98249523  T   T   T
   0.53553666    7.18829123    9.15518520  T   T   T
   0.52436903    8.10131417    9.45160451  T   T   T
    
    
    
    
    
    
    
    
    
    
    
    
    

















































































































































                                                            
                                               
                                               
                                               
                                               
                                               
                                               
                                               
                                               
                                               
                                               
                                               
                                               
                                               














































 























































































































































































 
  








































































































 












































































































