SYSTEM = a_1_1_1
PREC = Normal
ENCUT = 450
ISPIN = 2
ICHARG = 0
NSW = 200
NCORE = 12
IBRION = 2
NFREE = 3
ALGO = V
EDIFF = 1.0E-4
EDIFFG = -0.03
POTIM = 0.5
LREAL= A
LVTOT = .TRUE.
LAECHG=.TRUE.
GGA = 91
ISMEAR = 1
SIGMA = 0.1
LSORBIT = .FALSE.
LNONCOLLINEAR = .FALSE.
LORBIT = 11
IMIX = 4
WC = 1000
INIMIX = 1
MIXPRE = 1
MAXMIX = -45
