1x4x2_1_1_1                             
   1.00000000000000     
    11.8729999999999993    0.0000000000000000    0.0000000000000000
     0.0000000000000000   12.9589999999999996    0.0000000000000000
     0.0000000000000000    0.0000000000000000   29.4299999999999997
  48  48  48   6   1   6
Selective dynamics
cart
  5.62673      1.36271      3.89332  F   F   F
  2.74278      3.25495      0.49638  F   F   F
 11.77958      1.67411      3.68179  F   F   F
  8.75490      2.85989      1.20722  F   F   F
  4.93082      5.09223      0.55522  F   F   F
  2.89000      5.74166      4.14423  F   F   F
 10.46951      4.87751      1.35388  F   F   F
  7.40961      5.92294      3.78603  F   F   F
  5.62627      7.84230      3.89354  F   F   F
  2.74295      9.73469      0.49611  F   F   F
 11.77945      8.15408      3.68170  F   F   F
  8.75474      9.33944      1.20727  F   F   F
  4.93044     11.57202      0.55485  F   F   F
  2.88961     12.22109      4.14404  F   F   F
 10.46954     11.35685      1.35377  F   F   F
  7.40920     12.40233      3.78606  F   F   F
  5.06908      0.89414      8.07331  T   T   T
  5.61805      1.50956     11.79880  T   T   T
  2.99597      3.13276      5.09454  T   T   T
  1.72414      2.40899      9.70873  T   T   T
 10.50910      1.51785      8.08024  T   T   T
  0.36472      1.25879     11.56268  T   T   T
  8.87586      2.53625      5.82723  T   T   T
  8.91757      2.72439      9.77549  T   T   T
  5.43642      4.81894      5.07551  T   T   T
  5.09452      5.13659      9.33604  T   T   T
  2.85655      5.76237      7.90226  T   T   T
  2.69887      5.98195     12.01288  T   T   T
 11.03601      4.18128      5.58106  T   T   T
 10.62326      4.68986      9.87311  T   T   T
  7.25064      5.80969      7.91900  T   T   T
  7.50201      6.18123     11.86842  T   T   T
  5.05215      7.38684      8.10570  T   T   T
  5.58464      7.96580     11.90903  T   T   T
  2.93232      9.64873      5.04549  T   T   T
  1.79672      8.94653      9.63223  T   T   T
 10.48739      7.99485      8.06124  T   T   T
  0.56092      7.70650     11.53397  T   T   T
  8.90057      9.00335      5.83177  T   T   T
  8.84744      9.22494      9.74639  T   T   T
  5.41184     11.28427      5.07440  T   T   T
  4.97093     11.48794      9.30982  T   T   T
  2.83840     12.23472      7.89185  T   T   T
  2.53333     12.46656     11.88500  T   T   T
 11.06611     10.66449      5.57789  T   T   T
 10.60326     11.12471      9.88326  T   T   T
  7.24723     12.26527      7.88261  T   T   T
  7.48781     12.66466     11.85111  T   T   T
  3.59509      0.84557      1.80997  F   F   F
  0.68879      0.66163      1.08655  F   F   F
  9.64942      0.31077      2.40935  F   F   F
  6.94003      0.96728      1.48555  F   F   F
  3.79580      3.41934      2.98572  F   F   F
  0.44520      4.03199      2.89035  F   F   F
  9.16381      4.01746      3.73872  F   F   F
  6.49180      3.64993      2.57927  F   F   F
  3.59544      7.32488      1.81011  F   F   F
  0.68909      7.14124      1.08670  F   F   F
  9.64930      6.79059      2.40943  F   F   F
  6.93968      7.44661      1.48562  F   F   F
  3.79579      9.89872      2.98555  F   F   F
  0.44527     10.51125      2.88974  F   F   F
  9.16376     10.49670      3.73872  F   F   F
  6.49165     10.12936      2.57902  F   F   F
  3.60836      0.66509      5.84376  T   T   T
  3.57680      0.68170     10.12423  T   T   T
  0.53700      0.10547      6.31668  T   T   T
  0.77186     12.85906      9.51603  T   T   T
  9.43471     12.84746      5.90633  T   T   T
  9.83306      0.64569     10.77565  T   T   T
  6.68455      0.79934      5.98978  T   T   T
  7.01345      0.91461      9.79728  T   T   T
  3.55224      3.19212      7.78632  T   T   T
  3.80974      3.55368     11.19723  T   T   T
  0.49813      3.85194      7.84879  T   T   T
  0.97985      3.94612     11.55412  T   T   T
  9.29796      4.05232      7.64829  T   T   T
  9.21424      4.27568     11.84407  T   T   T
  6.52541      3.21841      7.49998  T   T   T
  6.73603      3.82492     10.87077  T   T   T
  3.61484      7.16339      5.84699  T   T   T
  3.50957      7.16519     10.20404  T   T   T
  0.55394      6.56501      6.28585  T   T   T
  0.73582      6.42819      9.45848  T   T   T
  9.42584      6.37706      5.88138  T   T   T
  9.83067      7.18403     10.77395  T   T   T
  6.68892      7.27612      6.00700  T   T   T
  6.90875      7.44426      9.84431  T   T   T
  3.57033      9.69855      7.59002  T   T   T
  3.81840      9.98956     11.35279  T   T   T
  0.49984     10.34946      7.84139  T   T   T
  0.98408     10.28542     11.54681  T   T   T
  9.30782     10.53346      7.62527  T   T   T
  9.16637     10.75277     11.85119  T   T   T
  6.52977      9.68173      7.48910  T   T   T
  6.67712     10.26031     10.94110  T   T   T
  5.00652      2.72430      0.72196  F   F   F
  2.16243      1.54697      3.81430  F   F   F
 10.89041      2.42551      1.62192  F   F   F
  7.84344      1.84288      3.95519  F   F   F
  5.18029      5.77736      3.03620  F   F   F
  2.24198      5.15569      1.60015  F   F   F
 11.17719      5.80389      4.18716  F   F   F
  8.12664      5.08540      1.05583  F   F   F
  5.00663      9.20404      0.72217  F   F   F
  2.16279      8.02636      3.81427  F   F   F
 10.89053      8.90467      1.62214  F   F   F
  7.84327      8.32252      3.95527  F   F   F
  5.18011     12.25716      3.03598  F   F   F
  2.24182     11.63526      1.60008  F   F   F
 11.17747     12.28325      4.18674  F   F   F
  8.12632     11.56502      1.05598  F   F   F
  5.07847      2.69211      5.59052  T   T   T
  5.19458      2.57792      9.52058  T   T   T
  2.05397      1.34429      7.78188  T   T   T
  2.40869      1.86158     12.14639  T   T   T
 11.14402      2.13683      6.03876  T   T   T
 11.30929      2.56414      9.92494  T   T   T
  8.34534      1.46126      7.80759  T   T   T
  8.07277      1.99789     11.98492  T   T   T
  5.02043      5.43086      7.14242  T   T   T
  5.17711      5.66680     11.68427  T   T   T
  2.05987      4.71881      6.09555  T   T   T
  2.34862      4.59940      9.66121  T   T   T
 10.82541      5.81658      7.89283  T   T   T
 11.36168      5.72785     11.90143  T   T   T
  7.67441      4.65584      5.69352  T   T   T
  8.47083      5.33089      9.74755  T   T   T
  5.06863      9.16119      5.54937  T   T   T
  5.08174      9.10916      9.50643  T   T   T
  2.08839      7.82180      7.75555  T   T   T
  2.51954      8.29768     12.40922  T   T   T
 11.17426      8.61992      6.04613  T   T   T
 11.35741      9.00902      9.88792  T   T   T
  8.31659      7.92351      7.83811  T   T   T
  8.05935      8.46296     12.00939  T   T   T
  5.03965     11.90662      7.13874  T   T   T
  5.16220     12.16634     11.62452  T   T   T
  2.00305     11.21940      6.06676  T   T   T
  2.45477     11.08075      9.69265  T   T   T
 10.82794     12.31033      7.96038  T   T   T
 11.39937     12.12188     11.89270  T   T   T
  7.66604     11.12801      5.68123  T   T   T
  8.43287     11.71094      9.72292  T   T   T
  4.59880      8.14527     14.42861  T   T   T
  5.97192      8.39037     14.45833  T   T   T
  6.86778      7.31629     14.45140  T   T   T
  6.39122      6.00257     14.40095  T   T   T
  5.01723      5.77259     14.37765  T   T   T
  4.11290      6.83746     14.39515  T   T   T
  8.22973      7.49596     14.50244  T   T   T
  3.90602      8.98580     14.43808  T   T   T
  6.35110      9.41479     14.48887  T   T   T
  7.10646      5.18092     14.39326  T   T   T
  4.64835      4.74777     14.34766  T   T   T
  3.04094      6.65075     14.37356  T   T   T 
  8.42126      8.44858     14.56001  T   T   T






  0.00000000E+00  0.00000000E+00  0.00000000E+00
  0.00000000E+00  0.00000000E+00  0.00000000E+00
  0.00000000E+00  0.00000000E+00  0.00000000E+00
  0.00000000E+00  0.00000000E+00  0.00000000E+00
  0.00000000E+00  0.00000000E+00  0.00000000E+00
  0.00000000E+00  0.00000000E+00  0.00000000E+00
  0.00000000E+00  0.00000000E+00  0.00000000E+00
  0.00000000E+00  0.00000000E+00  0.00000000E+00
  0.00000000E+00  0.00000000E+00  0.00000000E+00
  0.00000000E+00  0.00000000E+00  0.00000000E+00
  0.00000000E+00  0.00000000E+00  0.00000000E+00
  0.00000000E+00  0.00000000E+00  0.00000000E+00
  0.00000000E+00  0.00000000E+00  0.00000000E+00
  0.00000000E+00  0.00000000E+00  0.00000000E+00
  0.00000000E+00  0.00000000E+00  0.00000000E+00
  0.00000000E+00  0.00000000E+00  0.00000000E+00
  0.00000000E+00  0.00000000E+00  0.00000000E+00
  0.00000000E+00  0.00000000E+00  0.00000000E+00
  0.00000000E+00  0.00000000E+00  0.00000000E+00
  0.00000000E+00  0.00000000E+00  0.00000000E+00
  0.00000000E+00  0.00000000E+00  0.00000000E+00
  0.00000000E+00  0.00000000E+00  0.00000000E+00
  0.00000000E+00  0.00000000E+00  0.00000000E+00
  0.00000000E+00  0.00000000E+00  0.00000000E+00
  0.00000000E+00  0.00000000E+00  0.00000000E+00
  0.00000000E+00  0.00000000E+00  0.00000000E+00
  0.00000000E+00  0.00000000E+00  0.00000000E+00
  0.00000000E+00  0.00000000E+00  0.00000000E+00
  0.00000000E+00  0.00000000E+00  0.00000000E+00
  0.00000000E+00  0.00000000E+00  0.00000000E+00
  0.00000000E+00  0.00000000E+00  0.00000000E+00
  0.00000000E+00  0.00000000E+00  0.00000000E+00
  0.00000000E+00  0.00000000E+00  0.00000000E+00
  0.00000000E+00  0.00000000E+00  0.00000000E+00
  0.00000000E+00  0.00000000E+00  0.00000000E+00
  0.00000000E+00  0.00000000E+00  0.00000000E+00
  0.00000000E+00  0.00000000E+00  0.00000000E+00
  0.00000000E+00  0.00000000E+00  0.00000000E+00
  0.00000000E+00  0.00000000E+00  0.00000000E+00
  0.00000000E+00  0.00000000E+00  0.00000000E+00
  0.00000000E+00  0.00000000E+00  0.00000000E+00
  0.00000000E+00  0.00000000E+00  0.00000000E+00
  0.00000000E+00  0.00000000E+00  0.00000000E+00
  0.00000000E+00  0.00000000E+00  0.00000000E+00
  0.00000000E+00  0.00000000E+00  0.00000000E+00
  0.00000000E+00  0.00000000E+00  0.00000000E+00
  0.00000000E+00  0.00000000E+00  0.00000000E+00
  0.00000000E+00  0.00000000E+00  0.00000000E+00
  0.00000000E+00  0.00000000E+00  0.00000000E+00
  0.00000000E+00  0.00000000E+00  0.00000000E+00
  0.00000000E+00  0.00000000E+00  0.00000000E+00
  0.00000000E+00  0.00000000E+00  0.00000000E+00
  0.00000000E+00  0.00000000E+00  0.00000000E+00
  0.00000000E+00  0.00000000E+00  0.00000000E+00
  0.00000000E+00  0.00000000E+00  0.00000000E+00
  0.00000000E+00  0.00000000E+00  0.00000000E+00
  0.00000000E+00  0.00000000E+00  0.00000000E+00
  0.00000000E+00  0.00000000E+00  0.00000000E+00
  0.00000000E+00  0.00000000E+00  0.00000000E+00
  0.00000000E+00  0.00000000E+00  0.00000000E+00
  0.00000000E+00  0.00000000E+00  0.00000000E+00
  0.00000000E+00  0.00000000E+00  0.00000000E+00
  0.00000000E+00  0.00000000E+00  0.00000000E+00
  0.00000000E+00  0.00000000E+00  0.00000000E+00
  0.00000000E+00  0.00000000E+00  0.00000000E+00
  0.00000000E+00  0.00000000E+00  0.00000000E+00
  0.00000000E+00  0.00000000E+00  0.00000000E+00
  0.00000000E+00  0.00000000E+00  0.00000000E+00
  0.00000000E+00  0.00000000E+00  0.00000000E+00
  0.00000000E+00  0.00000000E+00  0.00000000E+00
  0.00000000E+00  0.00000000E+00  0.00000000E+00
  0.00000000E+00  0.00000000E+00  0.00000000E+00
  0.00000000E+00  0.00000000E+00  0.00000000E+00
  0.00000000E+00  0.00000000E+00  0.00000000E+00
  0.00000000E+00  0.00000000E+00  0.00000000E+00
  0.00000000E+00  0.00000000E+00  0.00000000E+00
  0.00000000E+00  0.00000000E+00  0.00000000E+00
  0.00000000E+00  0.00000000E+00  0.00000000E+00
  0.00000000E+00  0.00000000E+00  0.00000000E+00
  0.00000000E+00  0.00000000E+00  0.00000000E+00
  0.00000000E+00  0.00000000E+00  0.00000000E+00
  0.00000000E+00  0.00000000E+00  0.00000000E+00
  0.00000000E+00  0.00000000E+00  0.00000000E+00
  0.00000000E+00  0.00000000E+00  0.00000000E+00
  0.00000000E+00  0.00000000E+00  0.00000000E+00
  0.00000000E+00  0.00000000E+00  0.00000000E+00
  0.00000000E+00  0.00000000E+00  0.00000000E+00
  0.00000000E+00  0.00000000E+00  0.00000000E+00
  0.00000000E+00  0.00000000E+00  0.00000000E+00
  0.00000000E+00  0.00000000E+00  0.00000000E+00
  0.00000000E+00  0.00000000E+00  0.00000000E+00
  0.00000000E+00  0.00000000E+00  0.00000000E+00
  0.00000000E+00  0.00000000E+00  0.00000000E+00
  0.00000000E+00  0.00000000E+00  0.00000000E+00
  0.00000000E+00  0.00000000E+00  0.00000000E+00
  0.00000000E+00  0.00000000E+00  0.00000000E+00
  0.00000000E+00  0.00000000E+00  0.00000000E+00
  0.00000000E+00  0.00000000E+00  0.00000000E+00
  0.00000000E+00  0.00000000E+00  0.00000000E+00
  0.00000000E+00  0.00000000E+00  0.00000000E+00
  0.00000000E+00  0.00000000E+00  0.00000000E+00
  0.00000000E+00  0.00000000E+00  0.00000000E+00
  0.00000000E+00  0.00000000E+00  0.00000000E+00
  0.00000000E+00  0.00000000E+00  0.00000000E+00
  0.00000000E+00  0.00000000E+00  0.00000000E+00
  0.00000000E+00  0.00000000E+00  0.00000000E+00
  0.00000000E+00  0.00000000E+00  0.00000000E+00
  0.00000000E+00  0.00000000E+00  0.00000000E+00
  0.00000000E+00  0.00000000E+00  0.00000000E+00
  0.00000000E+00  0.00000000E+00  0.00000000E+00
  0.00000000E+00  0.00000000E+00  0.00000000E+00
  0.00000000E+00  0.00000000E+00  0.00000000E+00
  0.00000000E+00  0.00000000E+00  0.00000000E+00
  0.00000000E+00  0.00000000E+00  0.00000000E+00
  0.00000000E+00  0.00000000E+00  0.00000000E+00
  0.00000000E+00  0.00000000E+00  0.00000000E+00
  0.00000000E+00  0.00000000E+00  0.00000000E+00
  0.00000000E+00  0.00000000E+00  0.00000000E+00
  0.00000000E+00  0.00000000E+00  0.00000000E+00
  0.00000000E+00  0.00000000E+00  0.00000000E+00
  0.00000000E+00  0.00000000E+00  0.00000000E+00
  0.00000000E+00  0.00000000E+00  0.00000000E+00
  0.00000000E+00  0.00000000E+00  0.00000000E+00
  0.00000000E+00  0.00000000E+00  0.00000000E+00
  0.00000000E+00  0.00000000E+00  0.00000000E+00
  0.00000000E+00  0.00000000E+00  0.00000000E+00
  0.00000000E+00  0.00000000E+00  0.00000000E+00
  0.00000000E+00  0.00000000E+00  0.00000000E+00
  0.00000000E+00  0.00000000E+00  0.00000000E+00
  0.00000000E+00  0.00000000E+00  0.00000000E+00
  0.00000000E+00  0.00000000E+00  0.00000000E+00
  0.00000000E+00  0.00000000E+00  0.00000000E+00
  0.00000000E+00  0.00000000E+00  0.00000000E+00
  0.00000000E+00  0.00000000E+00  0.00000000E+00
